10 10 4

0 328 254 222 417 85 192 483 445 173 
69 0 445 170 398 300 56 423 267 410 
470 347 0 454 80 156 449 494 359 121 
307 483 342 0 120 66 302 293 434 338 
435 172 489 314 0 191 189 191 295 439 
404 217 413 313 393 0 466 266 423 121 
421 173 186 248 430 168 0 90 257 391 
98 500 80 386 190 203 130 0 210 100 
269 351 346 415 255 62 83 274 0 162 
499 491 84 119 167 414 255 366 100 0 

284.46 0 1
284.46 1 3
284.46 2 8
284.46 3 4
284.46 4 6
284.46 5 2
284.46 6 2
284.46 7 5
284.46 8 2
284.46 9 4

